c "521430.clq"
p edge 200 784
e 1 5
e 1 6
e 1 113
e 1 192
e 2 5
e 2 6
e 2 7
e 2 11
e 2 12
e 2 14
e 2 15
e 2 19
e 2 26
e 2 27
e 2 33
e 2 45
e 2 62
e 2 67
e 2 68
e 2 76
e 2 94
e 2 108
e 2 118
e 2 121
e 2 185
e 2 190
e 3 5
e 3 6
e 3 7
e 3 8
e 3 9
e 3 14
e 3 37
e 3 64
e 3 97
e 3 116
e 3 141
e 3 196
e 4 5
e 4 7
e 4 8
e 4 9
e 4 10
e 4 11
e 4 17
e 4 20
e 4 22
e 4 25
e 4 34
e 4 35
e 4 37
e 4 39
e 4 41
e 4 48
e 4 50
e 4 58
e 4 61
e 4 63
e 4 71
e 4 84
e 4 87
e 4 97
e 4 100
e 4 121
e 4 127
e 4 129
e 4 143
e 4 146
e 4 149
e 4 161
e 4 175
e 4 178
e 5 6
e 5 7
e 5 8
e 5 10
e 5 11
e 5 12
e 5 13
e 5 15
e 5 16
e 5 17
e 5 23
e 5 24
e 5 26
e 5 34
e 5 35
e 5 38
e 5 39
e 5 42
e 5 47
e 5 53
e 5 57
e 5 64
e 5 70
e 5 91
e 5 97
e 5 99
e 5 105
e 5 119
e 5 120
e 5 125
e 5 126
e 5 127
e 5 128
e 5 141
e 5 145
e 5 147
e 5 166
e 5 177
e 5 179
e 5 183
e 5 187
e 5 193
e 5 194
e 6 8
e 6 9
e 6 12
e 6 14
e 6 23
e 6 24
e 6 31
e 6 103
e 6 119
e 6 150
e 6 157
e 6 171
e 6 194
e 7 11
e 7 16
e 7 19
e 7 22
e 7 30
e 7 32
e 7 62
e 7 87
e 7 91
e 7 173
e 7 198
e 8 9
e 8 10
e 8 13
e 8 18
e 8 19
e 8 21
e 8 30
e 8 33
e 8 36
e 8 46
e 8 58
e 8 61
e 8 76
e 8 109
e 8 117
e 8 125
e 8 148
e 8 152
e 8 168
e 8 191
e 8 200
e 9 10
e 9 12
e 9 13
e 9 14
e 9 15
e 9 16
e 9 21
e 9 22
e 9 23
e 9 26
e 9 30
e 9 41
e 9 43
e 9 60
e 9 64
e 9 68
e 9 69
e 9 74
e 9 86
e 9 87
e 9 89
e 9 93
e 9 94
e 9 95
e 9 100
e 9 101
e 9 116
e 9 130
e 9 134
e 9 135
e 9 146
e 9 153
e 9 178
e 9 183
e 9 195
e 9 196
e 9 197
e 10 13
e 10 16
e 10 17
e 10 18
e 10 25
e 10 29
e 10 31
e 10 37
e 10 38
e 10 39
e 10 42
e 10 44
e 10 55
e 10 60
e 10 65
e 10 71
e 10 76
e 10 78
e 10 79
e 10 82
e 10 101
e 10 111
e 10 117
e 10 126
e 10 132
e 10 137
e 10 144
e 10 149
e 10 155
e 10 160
e 10 163
e 10 168
e 10 172
e 10 181
e 10 187
e 10 194
e 11 19
e 11 20
e 11 21
e 11 22
e 11 27
e 11 34
e 11 43
e 11 44
e 11 57
e 11 96
e 11 102
e 11 106
e 11 132
e 11 156
e 11 180
e 11 197
e 12 15
e 12 17
e 12 18
e 12 28
e 12 29
e 12 32
e 12 43
e 12 51
e 12 54
e 12 59
e 12 72
e 12 84
e 12 86
e 12 113
e 12 122
e 12 132
e 12 138
e 12 146
e 12 151
e 12 176
e 12 180
e 12 193
e 12 199
e 13 18
e 13 40
e 13 43
e 13 107
e 13 110
e 13 134
e 13 153
e 13 155
e 14 23
e 14 27
e 14 36
e 14 37
e 14 46
e 14 48
e 14 49
e 14 65
e 14 73
e 14 81
e 14 88
e 14 92
e 14 95
e 14 101
e 14 104
e 14 122
e 14 139
e 14 149
e 14 195
e 14 197
e 15 26
e 15 40
e 15 42
e 15 61
e 15 67
e 15 117
e 15 168
e 15 174
e 16 21
e 16 25
e 16 31
e 16 36
e 16 54
e 16 56
e 16 60
e 16 76
e 16 77
e 16 92
e 16 104
e 16 106
e 16 121
e 16 156
e 16 180
e 17 28
e 17 31
e 17 32
e 17 33
e 17 34
e 17 45
e 17 50
e 17 53
e 17 55
e 17 63
e 17 69
e 17 73
e 17 77
e 17 78
e 17 100
e 17 102
e 17 126
e 17 128
e 17 140
e 17 162
e 17 163
e 17 181
e 17 190
e 18 20
e 18 40
e 18 41
e 18 44
e 18 46
e 18 49
e 18 55
e 18 56
e 18 65
e 18 70
e 18 72
e 18 81
e 18 83
e 18 90
e 18 109
e 18 131
e 18 136
e 18 158
e 18 166
e 18 173
e 18 175
e 18 181
e 19 20
e 19 24
e 19 55
e 19 83
e 19 110
e 19 157
e 19 198
e 19 199
e 20 28
e 20 29
e 20 33
e 20 35
e 20 87
e 20 102
e 20 159
e 20 171
e 20 182
e 21 28
e 21 45
e 21 79
e 21 88
e 21 110
e 21 135
e 21 145
e 22 24
e 22 27
e 22 47
e 22 52
e 22 53
e 22 60
e 22 67
e 22 80
e 22 89
e 22 98
e 22 108
e 22 161
e 22 162
e 22 176
e 22 189
e 23 25
e 23 32
e 23 38
e 23 52
e 23 62
e 23 82
e 23 94
e 23 114
e 23 115
e 23 123
e 23 135
e 23 155
e 23 164
e 23 185
e 23 186
e 23 198
e 24 68
e 24 74
e 24 82
e 24 97
e 25 47
e 25 58
e 25 61
e 25 62
e 25 73
e 25 89
e 25 105
e 25 112
e 25 114
e 25 122
e 25 125
e 25 160
e 25 163
e 25 169
e 25 176
e 25 192
e 26 46
e 26 48
e 26 59
e 26 75
e 26 90
e 26 105
e 26 112
e 26 128
e 26 170
e 27 30
e 27 51
e 27 127
e 27 142
e 27 151
e 28 29
e 28 58
e 28 63
e 28 74
e 28 104
e 28 142
e 29 57
e 29 59
e 29 72
e 29 82
e 29 109
e 29 138
e 29 159
e 30 35
e 30 36
e 30 38
e 30 45
e 30 56
e 30 69
e 30 85
e 30 91
e 30 99
e 30 124
e 30 129
e 30 170
e 30 196
e 31 40
e 31 71
e 31 74
e 31 77
e 31 124
e 31 145
e 31 173
e 32 49
e 32 85
e 32 115
e 32 198
e 33 48
e 33 159
e 33 182
e 34 41
e 34 125
e 35 42
e 35 47
e 35 49
e 35 67
e 35 84
e 35 102
e 35 128
e 35 129
e 35 167
e 35 188
e 36 86
e 37 51
e 37 136
e 38 39
e 38 52
e 38 56
e 38 69
e 38 71
e 38 75
e 38 84
e 38 96
e 38 124
e 38 155
e 38 172
e 38 175
e 39 75
e 39 77
e 39 144
e 39 188
e 40 66
e 40 162
e 41 44
e 41 53
e 41 64
e 41 83
e 41 98
e 41 114
e 41 137
e 41 143
e 41 145
e 41 182
e 42 90
e 42 98
e 42 116
e 43 54
e 43 63
e 43 96
e 43 179
e 43 188
e 43 197
e 44 52
e 44 126
e 44 137
e 44 166
e 44 186
e 45 51
e 45 57
e 45 73
e 45 81
e 45 88
e 46 50
e 46 54
e 46 80
e 46 103
e 46 149
e 46 151
e 46 154
e 47 86
e 47 120
e 47 127
e 47 169
e 47 183
e 47 191
e 48 66
e 48 98
e 48 101
e 48 131
e 48 148
e 48 191
e 49 50
e 49 110
e 49 112
e 49 120
e 50 88
e 50 133
e 50 147
e 50 184
e 51 65
e 51 147
e 51 150
e 51 164
e 51 176
e 51 184
e 51 185
e 52 75
e 52 111
e 53 66
e 53 80
e 53 99
e 54 91
e 54 96
e 54 100
e 54 123
e 54 180
e 54 187
e 54 200
e 55 79
e 55 107
e 55 195
e 56 81
e 56 83
e 57 59
e 57 68
e 57 92
e 57 138
e 57 156
e 58 70
e 58 107
e 58 119
e 60 115
e 61 72
e 61 131
e 61 165
e 61 179
e 62 66
e 62 92
e 62 119
e 62 130
e 62 174
e 63 177
e 64 123
e 64 143
e 65 80
e 65 112
e 65 118
e 66 93
e 66 109
e 66 124
e 66 152
e 66 177
e 67 70
e 67 131
e 67 136
e 67 168
e 69 166
e 69 186
e 70 111
e 72 78
e 72 106
e 72 152
e 72 195
e 73 189
e 74 129
e 74 151
e 74 171
e 75 93
e 75 153
e 77 78
e 77 79
e 77 89
e 77 148
e 77 191
e 78 120
e 78 164
e 79 85
e 79 94
e 79 103
e 79 104
e 79 106
e 79 114
e 79 137
e 79 199
e 80 95
e 81 105
e 81 108
e 81 140
e 82 85
e 82 95
e 82 133
e 82 139
e 82 144
e 82 167
e 82 174
e 83 93
e 83 161
e 83 165
e 84 103
e 84 171
e 86 141
e 86 142
e 86 148
e 86 192
e 86 196
e 87 140
e 88 133
e 88 134
e 89 90
e 91 153
e 91 173
e 91 182
e 93 142
e 94 118
e 94 122
e 94 158
e 94 170
e 94 190
e 95 99
e 96 186
e 97 115
e 97 136
e 98 138
e 98 157
e 99 158
e 100 150
e 101 107
e 101 108
e 101 113
e 101 141
e 101 160
e 102 113
e 102 117
e 104 189
e 105 111
e 106 116
e 106 121
e 106 163
e 111 190
e 114 123
e 114 187
e 114 189
e 115 134
e 115 143
e 115 154
e 116 118
e 116 130
e 116 133
e 116 169
e 117 172
e 118 140
e 119 165
e 121 144
e 121 165
e 121 178
e 121 200
e 122 156
e 124 139
e 125 132
e 125 161
e 126 139
e 126 146
e 127 130
e 127 150
e 127 152
e 132 135
e 132 147
e 132 157
e 132 175
e 136 158
e 136 164
e 141 159
e 142 154
e 145 172
e 147 174
e 149 177
e 150 154
e 150 160
e 150 167
e 150 192
e 152 179
e 152 181
e 155 178
e 156 183
e 156 193
e 159 167
e 160 162
e 167 170
e 168 169
e 169 184
e 170 184
e 178 199
e 181 188
e 183 185
e 183 193
e 184 194
e 196 200
